
Gurobi 9.5.2 (mac64[x86], Python) logging started Fri Oct 21 23:28:01 2022

Set parameter Username
Set parameter LogFile to value "best-diff-new-future-4.log"
Academic license - for non-commercial use only - expires 2023-07-03
Read LP format model from file new_best_diff_future_4.lp
Reading time = 0.01 seconds
: 1989 rows, 1508 columns, 13772 nonzeros
Gurobi Optimizer version 9.5.2 build v9.5.2rc0 (mac64[x86])
Thread count: 4 physical cores, 8 logical processors, using up to 8 threads
Optimize a model with 1989 rows, 1508 columns and 13772 nonzeros
Model fingerprint: 0xb62d5905
Variable types: 0 continuous, 1508 integer (1508 binary)
Coefficient statistics:
  Matrix range     [1e+00, 2e+01]
  Objective range  [2e+00, 4e+00]
  Bounds range     [1e+00, 1e+00]
  RHS range        [1e+00, 2e+01]
Presolve removed 290 rows and 656 columns
Presolve time: 0.11s
Presolved: 1699 rows, 852 columns, 12316 nonzeros
Variable types: 0 continuous, 852 integer (660 binary)

Root relaxation: objective 3.579701e+01, 1066 iterations, 0.03 seconds (0.02 work units)

    Nodes    |    Current Node    |     Objective Bounds      |     Work
 Expl Unexpl |  Obj  Depth IntInf | Incumbent    BestBd   Gap | It/Node Time

     0     0   35.79701    0  157          -   35.79701      -     -    0s
     0     0   35.79701    0  240          -   35.79701      -     -    0s
     0     0   35.79701    0  243          -   35.79701      -     -    0s
     0     0   35.94938    0  248          -   35.94938      -     -    0s
     0     0   35.97921    0  301          -   35.97921      -     -    0s
     0     0   37.50888    0  335          -   37.50888      -     -    0s
     0     0   38.15152    0  368          -   38.15152      -     -    0s
     0     0   38.15557    0  311          -   38.15557      -     -    0s
     0     0   38.15585    0  318          -   38.15585      -     -    0s
     0     0   41.99584    0  389          -   41.99584      -     -    0s
     0     0   44.22664    0  296          -   44.22664      -     -    0s
     0     0   44.36037    0  375          -   44.36037      -     -    0s
     0     0   44.42092    0  386          -   44.42092      -     -    0s
     0     0   44.42106    0  395          -   44.42106      -     -    0s
     0     0   44.52189    0  386          -   44.52189      -     -    0s
     0     0   44.57119    0  388          -   44.57119      -     -    0s
     0     0   44.57964    0  377          -   44.57964      -     -    0s
     0     0   44.58228    0  392          -   44.58228      -     -    0s
     0     0   44.66434    0  199          -   44.66434      -     -    0s
     0     0   44.66627    0  187          -   44.66627      -     -    1s
     0     0   44.72645    0  197          -   44.72645      -     -    1s
     0     0   44.80689    0  306          -   44.80689      -     -    1s
     0     0   44.83698    0  323          -   44.83698      -     -    1s
     0     0   44.84999    0  305          -   44.84999      -     -    1s
     0     0   44.85080    0  326          -   44.85080      -     -    1s
     0     0   45.70622    0  218          -   45.70622      -     -    1s
     0     0   45.73346    0  254          -   45.73346      -     -    1s
     0     0   45.73414    0  209          -   45.73414      -     -    1s
     0     0   46.02693    0  187          -   46.02693      -     -    1s
     0     0   46.69147    0  291          -   46.69147      -     -    1s
     0     0   46.69999    0  226          -   46.69999      -     -    1s
     0     0   46.71322    0  227          -   46.71322      -     -    1s
     0     0   46.71497    0  212          -   46.71497      -     -    1s
     0     0   46.72590    0  200          -   46.72590      -     -    1s
     0     0   46.87713    0  420          -   46.87713      -     -    1s
     0     0   46.90675    0  359          -   46.90675      -     -    1s
     0     0   46.90891    0  397          -   46.90891      -     -    1s
     0     0   47.62370    0  192          -   47.62370      -     -    1s
     0     0   47.62370    0  189          -   47.62370      -     -    1s
     0     0   47.63273    0  146          -   47.63273      -     -    1s
     0     0   47.65757    0  213          -   47.65757      -     -    1s
     0     0   47.65842    0  217          -   47.65842      -     -    1s
     0     0   47.68263    0  267          -   47.68263      -     -    1s
     0     0   47.69105    0  262          -   47.69105      -     -    1s
     0     0   47.69221    0  282          -   47.69221      -     -    1s
     0     0   47.70184    0  199          -   47.70184      -     -    1s
     0     0   47.71295    0  299          -   47.71295      -     -    1s
     0     0   47.71629    0  216          -   47.71629      -     -    1s
     0     0   47.71664    0  223          -   47.71664      -     -    1s
     0     0   47.71670    0  305          -   47.71670      -     -    1s
     0     0   47.71670    0  236          -   47.71670      -     -    1s
     0     0   47.71670    0  156          -   47.71670      -     -    1s
     0     2   47.71670    0  156          -   47.71670      -     -    2s
  1073   609   50.00000   17  121          -   50.00000      -  27.5    5s
  3082  1089   52.04167   43  129          -   50.00000      -  30.8   10s
  4740  1468   50.00000   33  271          -   50.00000      -  46.1   16s
* 5039  1446              61      58.0000000   50.00000  13.8%  53.1   18s
* 5044  1306              62      56.0000000   50.00000  10.7%  53.0   18s
H 5069  1120                      54.0000000   50.00000  7.41%  53.8   19s
  5479  1195   50.29045   58  233   54.00000   50.00000  7.41%  57.9   20s
H 5798   755                      52.0000000   50.00000  3.85%  59.9   22s
  5924   782   50.00000   36  172   52.00000   50.00000  3.85%  61.7   25s
  6609   865   50.00000   43  130   52.00000   50.00000  3.85%  69.3   32s
H 6613   825                      50.0000000   50.00000  0.00%  69.4   32s

Cutting planes:
  Gomory: 169
  Lift-and-project: 3
  Cover: 249
  Implied bound: 211
  Clique: 14
  MIR: 906
  StrongCG: 32
  Flow cover: 364
  GUB cover: 10
  Inf proof: 48
  Zero half: 206
  RLT: 13
  Relax-and-lift: 20

Explored 6669 nodes (521379 simplex iterations) in 32.08 seconds (27.30 work units)
Thread count was 8 (of 8 available processors)

Solution count 5: 50 52 54 ... 58

Optimal solution found (tolerance 1.00e-04)
Best objective 5.000000000000e+01, best bound 5.000000000000e+01, gap 0.0000%
